
Gurobi 9.5.2 (win64, gurobi_cl) logging started Fri Dec  2 15:44:25 2022

Set parameter Username
Set parameter LogFile to value "gurobi.log"
Academic license - for non-commercial use only - expires 2023-08-21
Using license file C:\Users\mpsta\gurobi.lic

Gurobi 9.5.2 (win64, gurobi_cl) logging started Fri Dec  2 15:45:50 2022

Set parameter Username
Set parameter LogFile to value "gurobi.log"
Academic license - for non-commercial use only - expires 2023-08-21
Using license file C:\Users\mpsta\gurobi.lic
